certificates/rado_a14_c86_N27.drat
-7 -25 -27 0
-25 -27 0
d -25 -6 -27 0
6 7 -27 0
7 -26 -27 0
-6 -7 -26 0
-7 -26 0
d -14 -7 -26 0
-26 -27 0
d 7 -26 -27 0
6 -7 -27 0
-7 -27 0
d 6 -7 -27 0
d -7 -25 -27 0
-27 0
-6 7 0
7 0
-19 0
-26 0
6 0
-4 0
-8 0
-18 0
-9 0
-5 0
1 0
2 0
3 0
20 0
21 0
24 0
25 0
11 0
10 0
0
